;; translated from ./ctigar/bk-nat.c.vmt
;; original benchmark available at: https://es-static.fbk.eu/people/griggio/ic3ia/index.html
;; author: Alberto Griggio <griggio@fbk.eu>
(set-logic HORN)
(declare-fun state (Bool Bool Bool Bool Bool Bool Int Int Int Int) Bool)
(assert (forall ((|.s.1| Bool) (|.s.0| Bool) (|.s.2| Bool) (|.s.4.next| Bool) (|.s.0.next| Bool) (|.s.1.next| Bool) (|.s.2.next| Bool) (|.s.3.next| Bool) (|.s.5.next| Bool) (|main.unowned.next| Int) (|main.unowned| Int) (|main.exclusive.next| Int) (|main.exclusive| Int) (|main.invalid.next| Int) (|main.invalid| Int) (|main.nonexclusive.next| Int) (|main.nonexclusive| Int) (|.inputVar.0| Int) (|.s.4| Bool) (|.s.5| Bool) (|.s.3| Bool)) (=> (let ((.def_23 (not .s.5)))
(let ((.def_20 (not .s.4)))
(let ((.def_17 (not .s.3)))
(let ((.def_14 (not .s.2)))
(let ((.def_10 (not .s.1)))
(let ((.def_12 (and .def_10 .s.0)))
(let ((.def_15 (and .def_12 .def_14)))
(let ((.def_18 (and .def_15 .def_17)))
(let ((.def_21 (and .def_18 .def_20)))
(let ((.def_24 (and .def_21 .def_23)))
.def_24)))))))))) (state |.s.1| |.s.0| |.s.2| |.s.3| |.s.4| |.s.5| |main.unowned| |main.exclusive| |main.invalid| |main.nonexclusive|))))
(assert (forall ((|.s.1| Bool) (|.s.0| Bool) (|.s.2| Bool) (|.s.4.next| Bool) (|.s.0.next| Bool) (|.s.1.next| Bool) (|.s.2.next| Bool) (|.s.3.next| Bool) (|.s.5.next| Bool) (|main.unowned.next| Int) (|main.unowned| Int) (|main.exclusive.next| Int) (|main.exclusive| Int) (|main.invalid.next| Int) (|main.invalid| Int) (|main.nonexclusive.next| Int) (|main.nonexclusive| Int) (|.inputVar.0| Int) (|.s.4| Bool) (|.s.5| Bool) (|.s.3| Bool)) (=> (and (state |.s.1| |.s.0| |.s.2| |.s.3| |.s.4| |.s.5| |main.unowned| |main.exclusive| |main.invalid| |main.nonexclusive|) (let ((.def_25 (not .s.0)))
(let ((.def_10 (not .s.1)))
(let ((.def_26 (and .def_10 .def_25)))
(let ((.def_14 (not .s.2)))
(let ((.def_27 (and .def_14 .def_26)))
(let ((.def_17 (not .s.3)))
(let ((.def_28 (and .def_17 .def_27)))
(let ((.def_20 (not .s.4)))
(let ((.def_295 (and .def_20 .def_28)))
(let ((.def_23 (not .s.5)))
(let ((.def_675 (and .def_23 .def_295)))
(let ((.def_676 (not .def_675)))
(let ((.def_73 (not .s.4.next)))
(let ((.def_39 (not .s.0.next)))
(let ((.def_37 (not .s.1.next)))
(let ((.def_40 (and .def_37 .def_39)))
(let ((.def_35 (not .s.2.next)))
(let ((.def_41 (and .def_35 .def_40)))
(let ((.def_33 (not .s.3.next)))
(let ((.def_42 (and .def_33 .def_41)))
(let ((.def_132 (and .def_42 .def_73)))
(let ((.def_131 (not .s.5.next)))
(let ((.def_133 (and .def_131 .def_132)))
(let ((.def_49 (= main.unowned main.unowned.next)))
(let ((.def_134 (and .def_49 .def_133)))
(let ((.def_53 (= main.exclusive main.exclusive.next)))
(let ((.def_135 (and .def_53 .def_134)))
(let ((.def_57 (= main.invalid main.invalid.next)))
(let ((.def_136 (and .def_57 .def_135)))
(let ((.def_61 (= main.nonexclusive main.nonexclusive.next)))
(let ((.def_137 (and .def_61 .def_136)))
(let ((.def_677 (or .def_137 .def_676)))
(let ((.def_87 (and .s.1.next .def_39)))
(let ((.def_162 (and .def_35 .def_87)))
(let ((.def_287 (and .def_33 .def_162)))
(let ((.def_288 (and .def_73 .def_287)))
(let ((.def_669 (and .def_131 .def_288)))
(let ((.def_670 (and .def_49 .def_669)))
(let ((.def_671 (and .def_53 .def_670)))
(let ((.def_672 (and .def_57 .def_671)))
(let ((.def_673 (and .def_61 .def_672)))
(let ((.def_657 (= main.exclusive 0)))
(let ((.def_666 (not .def_657)))
(let ((.def_12 (and .def_10 .s.0)))
(let ((.def_15 (and .def_12 .def_14)))
(let ((.def_18 (and .def_15 .def_17)))
(let ((.def_21 (and .def_18 .def_20)))
(let ((.def_24 (and .def_21 .def_23)))
(let ((.def_667 (and .def_24 .def_666)))
(let ((.def_668 (not .def_667)))
(let ((.def_674 (or .def_668 .def_673)))
(let ((.def_678 (and .def_674 .def_677)))
(let ((.def_70 (and .s.1.next .s.0.next)))
(let ((.def_144 (and .def_35 .def_70)))
(let ((.def_271 (and .def_33 .def_144)))
(let ((.def_272 (and .def_73 .def_271)))
(let ((.def_660 (and .def_131 .def_272)))
(let ((.def_661 (and .def_49 .def_660)))
(let ((.def_662 (and .def_53 .def_661)))
(let ((.def_663 (and .def_57 .def_662)))
(let ((.def_664 (and .def_61 .def_663)))
(let ((.def_658 (and .def_24 .def_657)))
(let ((.def_659 (not .def_658)))
(let ((.def_665 (or .def_659 .def_664)))
(let ((.def_679 (and .def_665 .def_678)))
(let ((.def_81 (and .s.1 .def_25)))
(let ((.def_139 (and .def_14 .def_81)))
(let ((.def_267 (and .def_17 .def_139)))
(let ((.def_268 (and .def_20 .def_267)))
(let ((.def_654 (and .def_23 .def_268)))
(let ((.def_655 (not .def_654)))
(let ((.def_656 (or .def_137 .def_655)))
(let ((.def_680 (and .def_656 .def_679)))
(let ((.def_102 (and .def_37 .s.0.next)))
(let ((.def_103 (and .s.2.next .def_102)))
(let ((.def_241 (and .def_33 .def_103)))
(let ((.def_242 (and .def_73 .def_241)))
(let ((.def_648 (and .def_131 .def_242)))
(let ((.def_649 (and .def_49 .def_648)))
(let ((.def_650 (and .def_53 .def_649)))
(let ((.def_651 (and .def_57 .def_650)))
(let ((.def_652 (and .def_61 .def_651)))
(let ((.def_636 (= main.nonexclusive 0)))
(let ((.def_64 (and .s.1 .s.0)))
(let ((.def_126 (and .def_14 .def_64)))
(let ((.def_249 (and .def_17 .def_126)))
(let ((.def_250 (and .def_20 .def_249)))
(let ((.def_635 (and .def_23 .def_250)))
(let ((.def_646 (and .def_635 .def_636)))
(let ((.def_647 (not .def_646)))
(let ((.def_653 (or .def_647 .def_652)))
(let ((.def_681 (and .def_653 .def_680)))
(let ((.def_117 (and .s.2.next .def_40)))
(let ((.def_259 (and .def_33 .def_117)))
(let ((.def_260 (and .def_73 .def_259)))
(let ((.def_640 (and .def_131 .def_260)))
(let ((.def_641 (and .def_49 .def_640)))
(let ((.def_642 (and .def_53 .def_641)))
(let ((.def_643 (and .def_57 .def_642)))
(let ((.def_644 (and .def_61 .def_643)))
(let ((.def_637 (not .def_636)))
(let ((.def_638 (and .def_635 .def_637)))
(let ((.def_639 (not .def_638)))
(let ((.def_645 (or .def_639 .def_644)))
(let ((.def_682 (and .def_645 .def_681)))
(let ((.def_112 (and .s.2 .def_26)))
(let ((.def_237 (and .def_17 .def_112)))
(let ((.def_238 (and .def_20 .def_237)))
(let ((.def_632 (and .def_23 .def_238)))
(let ((.def_633 (not .def_632)))
(let ((.def_634 (or .def_137 .def_633)))
(let ((.def_683 (and .def_634 .def_682)))
(let ((.def_88 (and .s.2.next .def_87)))
(let ((.def_225 (and .def_33 .def_88)))
(let ((.def_226 (and .def_73 .def_225)))
(let ((.def_626 (and .def_131 .def_226)))
(let ((.def_627 (and .def_49 .def_626)))
(let ((.def_628 (and .def_53 .def_627)))
(let ((.def_629 (and .def_57 .def_628)))
(let ((.def_630 (and .def_61 .def_629)))
(let ((.def_614 (= main.unowned 0)))
(let ((.def_623 (not .def_614)))
(let ((.def_97 (and .def_12 .s.2)))
(let ((.def_219 (and .def_17 .def_97)))
(let ((.def_220 (and .def_20 .def_219)))
(let ((.def_613 (and .def_23 .def_220)))
(let ((.def_624 (and .def_613 .def_623)))
(let ((.def_625 (not .def_624)))
(let ((.def_631 (or .def_625 .def_630)))
(let ((.def_684 (and .def_631 .def_683)))
(let ((.def_71 (and .s.2.next .def_70)))
(let ((.def_211 (and .def_33 .def_71)))
(let ((.def_212 (and .def_73 .def_211)))
(let ((.def_617 (and .def_131 .def_212)))
(let ((.def_618 (and .def_49 .def_617)))
(let ((.def_619 (and .def_53 .def_618)))
(let ((.def_620 (and .def_57 .def_619)))
(let ((.def_621 (and .def_61 .def_620)))
(let ((.def_615 (and .def_613 .def_614)))
(let ((.def_616 (not .def_615)))
(let ((.def_622 (or .def_616 .def_621)))
(let ((.def_685 (and .def_622 .def_684)))
(let ((.def_82 (and .s.2 .def_81)))
(let ((.def_207 (and .def_17 .def_82)))
(let ((.def_208 (and .def_20 .def_207)))
(let ((.def_610 (and .def_23 .def_208)))
(let ((.def_611 (not .def_610)))
(let ((.def_612 (or .def_137 .def_611)))
(let ((.def_686 (and .def_612 .def_685)))
(let ((.def_65 (and .s.2 .def_64)))
(let ((.def_188 (and .def_17 .def_65)))
(let ((.def_189 (and .def_20 .def_188)))
(let ((.def_598 (and .def_23 .def_189)))
(let ((.def_364 (<= 1 main.invalid)))
(let ((.def_607 (and .def_364 .def_598)))
(let ((.def_608 (not .def_607)))
(let ((.def_179 (and .def_35 .def_102)))
(let ((.def_180 (and .s.3.next .def_179)))
(let ((.def_181 (and .def_73 .def_180)))
(let ((.def_492 (and .def_131 .def_181)))
(let ((.def_493 (and .def_49 .def_492)))
(let ((.def_494 (and .def_53 .def_493)))
(let ((.def_495 (and .def_57 .def_494)))
(let ((.def_496 (and .def_61 .def_495)))
(let ((.def_609 (or .def_496 .def_608)))
(let ((.def_687 (and .def_609 .def_686)))
(let ((.def_199 (and .s.3.next .def_41)))
(let ((.def_200 (and .def_73 .def_199)))
(let ((.def_601 (and .def_131 .def_200)))
(let ((.def_602 (and .def_49 .def_601)))
(let ((.def_603 (and .def_53 .def_602)))
(let ((.def_604 (and .def_57 .def_603)))
(let ((.def_605 (and .def_61 .def_604)))
(let ((.def_365 (not .def_364)))
(let ((.def_599 (and .def_365 .def_598)))
(let ((.def_600 (not .def_599)))
(let ((.def_606 (or .def_600 .def_605)))
(let ((.def_688 (and .def_606 .def_687)))
(let ((.def_175 (and .s.3 .def_27)))
(let ((.def_176 (and .def_20 .def_175)))
(let ((.def_595 (and .def_23 .def_176)))
(let ((.def_596 (not .def_595)))
(let ((.def_597 (or .def_137 .def_596)))
(let ((.def_689 (and .def_597 .def_688)))
(let ((.def_163 (and .s.3.next .def_162)))
(let ((.def_164 (and .def_73 .def_163)))
(let ((.def_589 (and .def_131 .def_164)))
(let ((.def_590 (and .def_49 .def_589)))
(let ((.def_591 (and .def_53 .def_590)))
(let ((.def_592 (and .def_57 .def_591)))
(let ((.def_593 (and .def_61 .def_592)))
(let ((.def_153 (and .def_15 .s.3)))
(let ((.def_154 (and .def_20 .def_153)))
(let ((.def_577 (and .def_23 .def_154)))
(let ((.def_469 (= .inputVar.0 0)))
(let ((.def_587 (and .def_469 .def_577)))
(let ((.def_588 (not .def_587)))
(let ((.def_594 (or .def_588 .def_593)))
(let ((.def_690 (and .def_594 .def_689)))
(let ((.def_387 (and .def_33 .def_179)))
(let ((.def_580 (and .def_73 .def_387)))
(let ((.def_581 (and .s.5.next .def_580)))
(let ((.def_582 (and .def_49 .def_581)))
(let ((.def_583 (and .def_53 .def_582)))
(let ((.def_584 (and .def_57 .def_583)))
(let ((.def_585 (and .def_61 .def_584)))
(let ((.def_470 (not .def_469)))
(let ((.def_578 (and .def_470 .def_577)))
(let ((.def_579 (not .def_578)))
(let ((.def_586 (or .def_579 .def_585)))
(let ((.def_691 (and .def_586 .def_690)))
(let ((.def_145 (and .s.3.next .def_144)))
(let ((.def_146 (and .def_73 .def_145)))
(let ((.def_571 (and .def_131 .def_146)))
(let ((.def_572 (and .def_49 .def_571)))
(let ((.def_573 (and .def_53 .def_572)))
(let ((.def_574 (and .def_57 .def_573)))
(let ((.def_575 (and .def_61 .def_574)))
(let ((.def_140 (and .s.3 .def_139)))
(let ((.def_141 (and .def_20 .def_140)))
(let ((.def_559 (and .def_23 .def_141)))
(let ((.def_569 (and .def_469 .def_559)))
(let ((.def_570 (not .def_569)))
(let ((.def_576 (or .def_570 .def_575)))
(let ((.def_692 (and .def_576 .def_691)))
(let ((.def_562 (and .s.4.next .def_287)))
(let ((.def_563 (and .def_131 .def_562)))
(let ((.def_564 (and .def_49 .def_563)))
(let ((.def_565 (and .def_53 .def_564)))
(let ((.def_566 (and .def_57 .def_565)))
(let ((.def_567 (and .def_61 .def_566)))
(let ((.def_560 (and .def_470 .def_559)))
(let ((.def_561 (not .def_560)))
(let ((.def_568 (or .def_561 .def_567)))
(let ((.def_693 (and .def_568 .def_692)))
(let ((.def_104 (and .s.3.next .def_103)))
(let ((.def_105 (and .def_73 .def_104)))
(let ((.def_553 (and .def_105 .def_131)))
(let ((.def_554 (and .def_49 .def_553)))
(let ((.def_555 (and .def_53 .def_554)))
(let ((.def_556 (and .def_57 .def_555)))
(let ((.def_557 (and .def_61 .def_556)))
(let ((.def_127 (and .s.3 .def_126)))
(let ((.def_128 (and .def_20 .def_127)))
(let ((.def_542 (and .def_23 .def_128)))
(let ((.def_551 (and .def_364 .def_542)))
(let ((.def_552 (not .def_551)))
(let ((.def_558 (or .def_552 .def_557)))
(let ((.def_694 (and .def_558 .def_693)))
(let ((.def_118 (and .s.3.next .def_117)))
(let ((.def_119 (and .def_73 .def_118)))
(let ((.def_545 (and .def_119 .def_131)))
(let ((.def_546 (and .def_49 .def_545)))
(let ((.def_547 (and .def_53 .def_546)))
(let ((.def_548 (and .def_57 .def_547)))
(let ((.def_549 (and .def_61 .def_548)))
(let ((.def_543 (and .def_365 .def_542)))
(let ((.def_544 (not .def_543)))
(let ((.def_550 (or .def_544 .def_549)))
(let ((.def_695 (and .def_550 .def_694)))
(let ((.def_113 (and .s.3 .def_112)))
(let ((.def_114 (and .def_20 .def_113)))
(let ((.def_539 (and .def_23 .def_114)))
(let ((.def_540 (not .def_539)))
(let ((.def_541 (or .def_137 .def_540)))
(let ((.def_696 (and .def_541 .def_695)))
(let ((.def_89 (and .s.3.next .def_88)))
(let ((.def_90 (and .def_73 .def_89)))
(let ((.def_533 (and .def_90 .def_131)))
(let ((.def_529 (* (- 1) main.nonexclusive.next)))
(let ((.def_530 (+ main.nonexclusive .def_529)))
(let ((.def_531 (+ main.exclusive .def_530)))
(let ((.def_532 (= .def_531 0)))
(let ((.def_534 (and .def_532 .def_533)))
(let ((.def_535 (and .def_49 .def_534)))
(let ((.def_536 (and .def_53 .def_535)))
(let ((.def_537 (and .def_57 .def_536)))
(let ((.def_98 (and .s.3 .def_97)))
(let ((.def_99 (and .def_20 .def_98)))
(let ((.def_527 (and .def_23 .def_99)))
(let ((.def_528 (not .def_527)))
(let ((.def_538 (or .def_528 .def_537)))
(let ((.def_697 (and .def_538 .def_696)))
(let ((.def_72 (and .s.3.next .def_71)))
(let ((.def_74 (and .def_72 .def_73)))
(let ((.def_521 (and .def_74 .def_131)))
(let ((.def_520 (= main.exclusive.next 0)))
(let ((.def_522 (and .def_520 .def_521)))
(let ((.def_523 (and .def_49 .def_522)))
(let ((.def_524 (and .def_57 .def_523)))
(let ((.def_525 (and .def_61 .def_524)))
(let ((.def_83 (and .s.3 .def_82)))
(let ((.def_84 (and .def_20 .def_83)))
(let ((.def_518 (and .def_23 .def_84)))
(let ((.def_519 (not .def_518)))
(let ((.def_526 (or .def_519 .def_525)))
(let ((.def_698 (and .def_526 .def_697)))
(let ((.def_44 (and .def_42 .s.4.next)))
(let ((.def_512 (and .def_44 .def_131)))
(let ((.def_309 (* (- 1) main.invalid.next)))
(let ((.def_510 (+ main.invalid .def_309)))
(let ((.def_511 (= .def_510 1)))
(let ((.def_513 (and .def_511 .def_512)))
(let ((.def_514 (and .def_49 .def_513)))
(let ((.def_515 (and .def_53 .def_514)))
(let ((.def_516 (and .def_61 .def_515)))
(let ((.def_66 (and .s.3 .def_65)))
(let ((.def_67 (and .def_20 .def_66)))
(let ((.def_508 (and .def_23 .def_67)))
(let ((.def_509 (not .def_508)))
(let ((.def_517 (or .def_509 .def_516)))
(let ((.def_699 (and .def_517 .def_698)))
(let ((.def_500 (* (- 1) main.unowned.next)))
(let ((.def_501 (+ main.unowned .def_500)))
(let ((.def_502 (= .def_501 (- 1))))
(let ((.def_388 (and .s.4.next .def_387)))
(let ((.def_389 (and .def_131 .def_388)))
(let ((.def_503 (and .def_389 .def_502)))
(let ((.def_504 (and .def_53 .def_503)))
(let ((.def_505 (and .def_57 .def_504)))
(let ((.def_506 (and .def_61 .def_505)))
(let ((.def_29 (and .s.4 .def_28)))
(let ((.def_498 (and .def_23 .def_29)))
(let ((.def_499 (not .def_498)))
(let ((.def_507 (or .def_499 .def_506)))
(let ((.def_700 (and .def_507 .def_699)))
(let ((.def_489 (and .def_18 .s.4)))
(let ((.def_490 (and .def_23 .def_489)))
(let ((.def_491 (not .def_490)))
(let ((.def_497 (or .def_491 .def_496)))
(let ((.def_701 (and .def_497 .def_700)))
(let ((.def_482 (and .s.4.next .def_271)))
(let ((.def_483 (and .def_131 .def_482)))
(let ((.def_484 (and .def_49 .def_483)))
(let ((.def_485 (and .def_53 .def_484)))
(let ((.def_486 (and .def_57 .def_485)))
(let ((.def_487 (and .def_61 .def_486)))
(let ((.def_466 (and .s.4 .def_267)))
(let ((.def_467 (and .def_23 .def_466)))
(let ((.def_480 (and .def_467 .def_469)))
(let ((.def_481 (not .def_480)))
(let ((.def_488 (or .def_481 .def_487)))
(let ((.def_702 (and .def_488 .def_701)))
(let ((.def_473 (and .s.4.next .def_163)))
(let ((.def_474 (and .def_131 .def_473)))
(let ((.def_475 (and .def_49 .def_474)))
(let ((.def_476 (and .def_53 .def_475)))
(let ((.def_477 (and .def_57 .def_476)))
(let ((.def_478 (and .def_61 .def_477)))
(let ((.def_471 (and .def_467 .def_470)))
(let ((.def_472 (not .def_471)))
(let ((.def_479 (or .def_472 .def_478)))
(let ((.def_703 (and .def_479 .def_702)))
(let ((.def_459 (and .s.4.next .def_241)))
(let ((.def_460 (and .def_131 .def_459)))
(let ((.def_461 (and .def_49 .def_460)))
(let ((.def_462 (and .def_53 .def_461)))
(let ((.def_463 (and .def_57 .def_462)))
(let ((.def_464 (and .def_61 .def_463)))
(let ((.def_445 (+ main.unowned main.nonexclusive)))
(let ((.def_446 (<= 1 .def_445)))
(let ((.def_443 (and .s.4 .def_249)))
(let ((.def_444 (and .def_23 .def_443)))
(let ((.def_457 (and .def_444 .def_446)))
(let ((.def_458 (not .def_457)))
(let ((.def_465 (or .def_458 .def_464)))
(let ((.def_704 (and .def_465 .def_703)))
(let ((.def_450 (and .s.4.next .def_259)))
(let ((.def_451 (and .def_131 .def_450)))
(let ((.def_452 (and .def_49 .def_451)))
(let ((.def_453 (and .def_53 .def_452)))
(let ((.def_454 (and .def_57 .def_453)))
(let ((.def_455 (and .def_61 .def_454)))
(let ((.def_447 (not .def_446)))
(let ((.def_448 (and .def_444 .def_447)))
(let ((.def_449 (not .def_448)))
(let ((.def_456 (or .def_449 .def_455)))
(let ((.def_705 (and .def_456 .def_704)))
(let ((.def_439 (and .s.4 .def_237)))
(let ((.def_440 (and .def_23 .def_439)))
(let ((.def_441 (not .def_440)))
(let ((.def_442 (or .def_137 .def_441)))
(let ((.def_706 (and .def_442 .def_705)))
(let ((.def_432 (and .s.4.next .def_225)))
(let ((.def_433 (and .def_131 .def_432)))
(let ((.def_314 (+ .def_309 main.nonexclusive)))
(let ((.def_315 (+ main.invalid .def_314)))
(let ((.def_430 (+ main.unowned .def_315)))
(let ((.def_431 (= .def_430 1)))
(let ((.def_434 (and .def_431 .def_433)))
(let ((.def_435 (and .def_49 .def_434)))
(let ((.def_436 (and .def_53 .def_435)))
(let ((.def_437 (and .def_61 .def_436)))
(let ((.def_426 (and .s.4 .def_219)))
(let ((.def_427 (and .def_23 .def_426)))
(let ((.def_428 (not .def_427)))
(let ((.def_438 (or .def_428 .def_437)))
(let ((.def_707 (and .def_438 .def_706)))
(let ((.def_419 (and .s.4.next .def_211)))
(let ((.def_420 (and .def_131 .def_419)))
(let ((.def_416 (* (- 1) main.exclusive.next)))
(let ((.def_417 (+ main.exclusive .def_416)))
(let ((.def_418 (= .def_417 (- 1))))
(let ((.def_421 (and .def_418 .def_420)))
(let ((.def_422 (and .def_49 .def_421)))
(let ((.def_423 (and .def_57 .def_422)))
(let ((.def_424 (and .def_61 .def_423)))
(let ((.def_413 (and .s.4 .def_207)))
(let ((.def_414 (and .def_23 .def_413)))
(let ((.def_415 (not .def_414)))
(let ((.def_425 (or .def_415 .def_424)))
(let ((.def_708 (and .def_425 .def_707)))
(let ((.def_406 (and .s.4.next .def_199)))
(let ((.def_407 (and .def_131 .def_406)))
(let ((.def_352 (= main.unowned.next 0)))
(let ((.def_408 (and .def_352 .def_407)))
(let ((.def_409 (and .def_53 .def_408)))
(let ((.def_410 (and .def_57 .def_409)))
(let ((.def_411 (and .def_61 .def_410)))
(let ((.def_403 (and .s.4 .def_188)))
(let ((.def_404 (and .def_23 .def_403)))
(let ((.def_405 (not .def_404)))
(let ((.def_412 (or .def_405 .def_411)))
(let ((.def_709 (and .def_412 .def_708)))
(let ((.def_341 (= main.nonexclusive.next 0)))
(let ((.def_298 (and .s.4.next .def_180)))
(let ((.def_299 (and .def_131 .def_298)))
(let ((.def_398 (and .def_299 .def_341)))
(let ((.def_399 (and .def_49 .def_398)))
(let ((.def_400 (and .def_53 .def_399)))
(let ((.def_401 (and .def_57 .def_400)))
(let ((.def_395 (and .s.4 .def_175)))
(let ((.def_396 (and .def_23 .def_395)))
(let ((.def_397 (not .def_396)))
(let ((.def_402 (or .def_397 .def_401)))
(let ((.def_710 (and .def_402 .def_709)))
(let ((.def_390 (and .def_49 .def_389)))
(let ((.def_391 (and .def_53 .def_390)))
(let ((.def_392 (and .def_57 .def_391)))
(let ((.def_393 (and .def_61 .def_392)))
(let ((.def_384 (and .s.4 .def_153)))
(let ((.def_385 (and .def_23 .def_384)))
(let ((.def_386 (not .def_385)))
(let ((.def_394 (or .def_386 .def_393)))
(let ((.def_711 (and .def_394 .def_710)))
(let ((.def_377 (and .s.4.next .def_118)))
(let ((.def_378 (and .def_131 .def_377)))
(let ((.def_379 (and .def_49 .def_378)))
(let ((.def_380 (and .def_53 .def_379)))
(let ((.def_381 (and .def_57 .def_380)))
(let ((.def_382 (and .def_61 .def_381)))
(let ((.def_362 (and .s.4 .def_140)))
(let ((.def_363 (and .def_23 .def_362)))
(let ((.def_375 (and .def_363 .def_364)))
(let ((.def_376 (not .def_375)))
(let ((.def_383 (or .def_376 .def_382)))
(let ((.def_712 (and .def_383 .def_711)))
(let ((.def_368 (and .s.4.next .def_145)))
(let ((.def_369 (and .def_131 .def_368)))
(let ((.def_370 (and .def_49 .def_369)))
(let ((.def_371 (and .def_53 .def_370)))
(let ((.def_372 (and .def_57 .def_371)))
(let ((.def_373 (and .def_61 .def_372)))
(let ((.def_366 (and .def_363 .def_365)))
(let ((.def_367 (not .def_366)))
(let ((.def_374 (or .def_367 .def_373)))
(let ((.def_713 (and .def_374 .def_712)))
(let ((.def_358 (and .s.4 .def_127)))
(let ((.def_359 (and .def_23 .def_358)))
(let ((.def_360 (not .def_359)))
(let ((.def_361 (or .def_137 .def_360)))
(let ((.def_714 (and .def_361 .def_713)))
(let ((.def_350 (and .s.4.next .def_104)))
(let ((.def_351 (and .def_131 .def_350)))
(let ((.def_353 (and .def_351 .def_352)))
(let ((.def_354 (and .def_53 .def_353)))
(let ((.def_355 (and .def_57 .def_354)))
(let ((.def_356 (and .def_61 .def_355)))
(let ((.def_347 (and .s.4 .def_113)))
(let ((.def_348 (and .def_23 .def_347)))
(let ((.def_349 (not .def_348)))
(let ((.def_357 (or .def_349 .def_356)))
(let ((.def_715 (and .def_357 .def_714)))
(let ((.def_339 (and .s.4.next .def_89)))
(let ((.def_340 (and .def_131 .def_339)))
(let ((.def_342 (and .def_340 .def_341)))
(let ((.def_343 (and .def_49 .def_342)))
(let ((.def_344 (and .def_53 .def_343)))
(let ((.def_345 (and .def_57 .def_344)))
(let ((.def_336 (and .s.4 .def_98)))
(let ((.def_337 (and .def_23 .def_336)))
(let ((.def_338 (not .def_337)))
(let ((.def_346 (or .def_338 .def_345)))
(let ((.def_716 (and .def_346 .def_715)))
(let ((.def_329 (and .s.4.next .def_72)))
(let ((.def_330 (and .def_131 .def_329)))
(let ((.def_328 (= main.exclusive.next 1)))
(let ((.def_331 (and .def_328 .def_330)))
(let ((.def_332 (and .def_49 .def_331)))
(let ((.def_333 (and .def_57 .def_332)))
(let ((.def_334 (and .def_61 .def_333)))
(let ((.def_325 (and .s.4 .def_83)))
(let ((.def_326 (and .def_23 .def_325)))
(let ((.def_327 (not .def_326)))
(let ((.def_335 (or .def_327 .def_334)))
(let ((.def_717 (and .def_335 .def_716)))
(let ((.def_319 (and .s.5.next .def_132)))
(let ((.def_316 (+ main.exclusive .def_315)))
(let ((.def_317 (+ main.unowned .def_316)))
(let ((.def_318 (= .def_317 1)))
(let ((.def_320 (and .def_318 .def_319)))
(let ((.def_321 (and .def_49 .def_320)))
(let ((.def_322 (and .def_53 .def_321)))
(let ((.def_323 (and .def_61 .def_322)))
(let ((.def_305 (and .s.4 .def_66)))
(let ((.def_306 (and .def_23 .def_305)))
(let ((.def_307 (not .def_306)))
(let ((.def_324 (or .def_307 .def_323)))
(let ((.def_718 (and .def_324 .def_717)))
(let ((.def_300 (and .def_49 .def_299)))
(let ((.def_301 (and .def_53 .def_300)))
(let ((.def_302 (and .def_57 .def_301)))
(let ((.def_303 (and .def_61 .def_302)))
(let ((.def_296 (and .s.5 .def_295)))
(let ((.def_297 (not .def_296)))
(let ((.def_304 (or .def_297 .def_303)))
(let ((.def_719 (and .def_304 .def_718)))
(let ((.def_289 (and .s.5.next .def_288)))
(let ((.def_290 (and .def_49 .def_289)))
(let ((.def_291 (and .def_53 .def_290)))
(let ((.def_292 (and .def_57 .def_291)))
(let ((.def_293 (and .def_61 .def_292)))
(let ((.def_280 (<= 0 main.exclusive)))
(let ((.def_279 (and .def_21 .s.5)))
(let ((.def_285 (and .def_279 .def_280)))
(let ((.def_286 (not .def_285)))
(let ((.def_294 (or .def_286 .def_293)))
(let ((.def_720 (and .def_294 .def_719)))
(let ((.def_281 (not .def_280)))
(let ((.def_282 (and .def_279 .def_281)))
(let ((.def_283 (not .def_282)))
(let ((.def_46 (and .def_44 .s.5.next)))
(let ((.def_50 (and .def_46 .def_49)))
(let ((.def_54 (and .def_50 .def_53)))
(let ((.def_58 (and .def_54 .def_57)))
(let ((.def_62 (and .def_58 .def_61)))
(let ((.def_284 (or .def_62 .def_283)))
(let ((.def_721 (and .def_284 .def_720)))
(let ((.def_273 (and .s.5.next .def_272)))
(let ((.def_274 (and .def_49 .def_273)))
(let ((.def_275 (and .def_53 .def_274)))
(let ((.def_276 (and .def_57 .def_275)))
(let ((.def_277 (and .def_61 .def_276)))
(let ((.def_269 (and .s.5 .def_268)))
(let ((.def_270 (not .def_269)))
(let ((.def_278 (or .def_270 .def_277)))
(let ((.def_722 (and .def_278 .def_721)))
(let ((.def_261 (and .s.5.next .def_260)))
(let ((.def_262 (and .def_49 .def_261)))
(let ((.def_263 (and .def_53 .def_262)))
(let ((.def_264 (and .def_57 .def_263)))
(let ((.def_265 (and .def_61 .def_264)))
(let ((.def_252 (<= 0 main.nonexclusive)))
(let ((.def_251 (and .s.5 .def_250)))
(let ((.def_257 (and .def_251 .def_252)))
(let ((.def_258 (not .def_257)))
(let ((.def_266 (or .def_258 .def_265)))
(let ((.def_723 (and .def_266 .def_722)))
(let ((.def_253 (not .def_252)))
(let ((.def_254 (and .def_251 .def_253)))
(let ((.def_255 (not .def_254)))
(let ((.def_75 (and .s.5.next .def_74)))
(let ((.def_76 (and .def_49 .def_75)))
(let ((.def_77 (and .def_53 .def_76)))
(let ((.def_78 (and .def_57 .def_77)))
(let ((.def_79 (and .def_61 .def_78)))
(let ((.def_256 (or .def_79 .def_255)))
(let ((.def_724 (and .def_256 .def_723)))
(let ((.def_243 (and .s.5.next .def_242)))
(let ((.def_244 (and .def_49 .def_243)))
(let ((.def_245 (and .def_53 .def_244)))
(let ((.def_246 (and .def_57 .def_245)))
(let ((.def_247 (and .def_61 .def_246)))
(let ((.def_239 (and .s.5 .def_238)))
(let ((.def_240 (not .def_239)))
(let ((.def_248 (or .def_240 .def_247)))
(let ((.def_725 (and .def_248 .def_724)))
(let ((.def_222 (<= 0 main.unowned)))
(let ((.def_233 (not .def_222)))
(let ((.def_221 (and .s.5 .def_220)))
(let ((.def_234 (and .def_221 .def_233)))
(let ((.def_235 (not .def_234)))
(let ((.def_91 (and .s.5.next .def_90)))
(let ((.def_92 (and .def_49 .def_91)))
(let ((.def_93 (and .def_53 .def_92)))
(let ((.def_94 (and .def_57 .def_93)))
(let ((.def_95 (and .def_61 .def_94)))
(let ((.def_236 (or .def_95 .def_235)))
(let ((.def_726 (and .def_236 .def_725)))
(let ((.def_227 (and .s.5.next .def_226)))
(let ((.def_228 (and .def_49 .def_227)))
(let ((.def_229 (and .def_53 .def_228)))
(let ((.def_230 (and .def_57 .def_229)))
(let ((.def_231 (and .def_61 .def_230)))
(let ((.def_223 (and .def_221 .def_222)))
(let ((.def_224 (not .def_223)))
(let ((.def_232 (or .def_224 .def_231)))
(let ((.def_727 (and .def_232 .def_726)))
(let ((.def_213 (and .s.5.next .def_212)))
(let ((.def_214 (and .def_49 .def_213)))
(let ((.def_215 (and .def_53 .def_214)))
(let ((.def_216 (and .def_57 .def_215)))
(let ((.def_217 (and .def_61 .def_216)))
(let ((.def_209 (and .s.5 .def_208)))
(let ((.def_210 (not .def_209)))
(let ((.def_218 (or .def_210 .def_217)))
(let ((.def_728 (and .def_218 .def_727)))
(let ((.def_201 (and .s.5.next .def_200)))
(let ((.def_202 (and .def_49 .def_201)))
(let ((.def_203 (and .def_53 .def_202)))
(let ((.def_204 (and .def_57 .def_203)))
(let ((.def_205 (and .def_61 .def_204)))
(let ((.def_192 (<= 0 main.invalid)))
(let ((.def_190 (and .s.5 .def_189)))
(let ((.def_197 (and .def_190 .def_192)))
(let ((.def_198 (not .def_197)))
(let ((.def_206 (or .def_198 .def_205)))
(let ((.def_729 (and .def_206 .def_728)))
(let ((.def_193 (not .def_192)))
(let ((.def_194 (and .def_190 .def_193)))
(let ((.def_195 (not .def_194)))
(let ((.def_106 (and .s.5.next .def_105)))
(let ((.def_107 (and .def_49 .def_106)))
(let ((.def_108 (and .def_53 .def_107)))
(let ((.def_109 (and .def_57 .def_108)))
(let ((.def_110 (and .def_61 .def_109)))
(let ((.def_196 (or .def_110 .def_195)))
(let ((.def_730 (and .def_196 .def_729)))
(let ((.def_182 (and .s.5.next .def_181)))
(let ((.def_183 (and .def_49 .def_182)))
(let ((.def_184 (and .def_53 .def_183)))
(let ((.def_185 (and .def_57 .def_184)))
(let ((.def_186 (and .def_61 .def_185)))
(let ((.def_177 (and .s.5 .def_176)))
(let ((.def_178 (not .def_177)))
(let ((.def_187 (or .def_178 .def_186)))
(let ((.def_731 (and .def_187 .def_730)))
(let ((.def_156 (+ main.exclusive main.invalid)))
(let ((.def_157 (+ main.unowned .def_156)))
(let ((.def_159 (<= 1 .def_157)))
(let ((.def_171 (not .def_159)))
(let ((.def_155 (and .s.5 .def_154)))
(let ((.def_172 (and .def_155 .def_171)))
(let ((.def_173 (not .def_172)))
(let ((.def_120 (and .s.5.next .def_119)))
(let ((.def_121 (and .def_49 .def_120)))
(let ((.def_122 (and .def_53 .def_121)))
(let ((.def_123 (and .def_57 .def_122)))
(let ((.def_124 (and .def_61 .def_123)))
(let ((.def_174 (or .def_124 .def_173)))
(let ((.def_732 (and .def_174 .def_731)))
(let ((.def_165 (and .s.5.next .def_164)))
(let ((.def_166 (and .def_49 .def_165)))
(let ((.def_167 (and .def_53 .def_166)))
(let ((.def_168 (and .def_57 .def_167)))
(let ((.def_169 (and .def_61 .def_168)))
(let ((.def_160 (and .def_155 .def_159)))
(let ((.def_161 (not .def_160)))
(let ((.def_170 (or .def_161 .def_169)))
(let ((.def_733 (and .def_170 .def_732)))
(let ((.def_147 (and .s.5.next .def_146)))
(let ((.def_148 (and .def_49 .def_147)))
(let ((.def_149 (and .def_53 .def_148)))
(let ((.def_150 (and .def_57 .def_149)))
(let ((.def_151 (and .def_61 .def_150)))
(let ((.def_142 (and .s.5 .def_141)))
(let ((.def_143 (not .def_142)))
(let ((.def_152 (or .def_143 .def_151)))
(let ((.def_734 (and .def_152 .def_733)))
(let ((.def_129 (and .s.5 .def_128)))
(let ((.def_130 (not .def_129)))
(let ((.def_138 (or .def_130 .def_137)))
(let ((.def_735 (and .def_138 .def_734)))
(let ((.def_115 (and .s.5 .def_114)))
(let ((.def_116 (not .def_115)))
(let ((.def_125 (or .def_116 .def_124)))
(let ((.def_736 (and .def_125 .def_735)))
(let ((.def_100 (and .s.5 .def_99)))
(let ((.def_101 (not .def_100)))
(let ((.def_111 (or .def_101 .def_110)))
(let ((.def_737 (and .def_111 .def_736)))
(let ((.def_85 (and .s.5 .def_84)))
(let ((.def_86 (not .def_85)))
(let ((.def_96 (or .def_86 .def_95)))
(let ((.def_738 (and .def_96 .def_737)))
(let ((.def_68 (and .s.5 .def_67)))
(let ((.def_69 (not .def_68)))
(let ((.def_80 (or .def_69 .def_79)))
(let ((.def_739 (and .def_80 .def_738)))
(let ((.def_30 (and .s.5 .def_29)))
(let ((.def_31 (not .def_30)))
(let ((.def_63 (or .def_31 .def_62)))
(let ((.def_740 (and .def_63 .def_739)))
.def_740)))))))))))))))))))))))))))))))))))))))))))))))))))))))))))))))))))))))))))))))))))))))))))))))))))))))))))))))))))))))))))))))))))))))))))))))))))))))))))))))))))))))))))))))))))))))))))))))))))))))))))))))))))))))))))))))))))))))))))))))))))))))))))))))))))))))))))))))))))))))))))))))))))))))))))))))))))))))))))))))))))))))))))))))))))))))))))))))))))))))))))))))))))))))))))))))))))))))))))))))))))))))))))))))))))))))))))))))))))))))))))))))))))))))))))))))))))))))))))))))))))))))))))))))))))))))))))))))))))))))))))))))))))))))))))))))))))))))))))))))))))))))))))))))))))))))))))))))))))))))))))))))))))))))))))))))))))))))))))))))))))))))))))))))))))))))))))))))))))))))))))))))))))))))))))))))) (state |.s.1.next| |.s.0.next| |.s.2.next| |.s.3.next| |.s.4.next| |.s.5.next| |main.unowned.next| |main.exclusive.next| |main.invalid.next| |main.nonexclusive.next|))))
(assert (forall ((|.s.1| Bool) (|.s.0| Bool) (|.s.2| Bool) (|.s.4.next| Bool) (|.s.0.next| Bool) (|.s.1.next| Bool) (|.s.2.next| Bool) (|.s.3.next| Bool) (|.s.5.next| Bool) (|main.unowned.next| Int) (|main.unowned| Int) (|main.exclusive.next| Int) (|main.exclusive| Int) (|main.invalid.next| Int) (|main.invalid| Int) (|main.nonexclusive.next| Int) (|main.nonexclusive| Int) (|.inputVar.0| Int) (|.s.4| Bool) (|.s.5| Bool) (|.s.3| Bool)) (=> (state |.s.1| |.s.0| |.s.2| |.s.3| |.s.4| |.s.5| |main.unowned| |main.exclusive| |main.invalid| |main.nonexclusive|) (let ((.def_25 (not .s.0)))
(let ((.def_10 (not .s.1)))
(let ((.def_26 (and .def_10 .def_25)))
(let ((.def_112 (and .s.2 .def_26)))
(let ((.def_113 (and .s.3 .def_112)))
(let ((.def_20 (not .s.4)))
(let ((.def_114 (and .def_20 .def_113)))
(let ((.def_115 (and .s.5 .def_114)))
(let ((.def_116 (not .def_115)))
(let ((.def_12 (and .def_10 .s.0)))
(let ((.def_97 (and .def_12 .s.2)))
(let ((.def_98 (and .s.3 .def_97)))
(let ((.def_99 (and .def_20 .def_98)))
(let ((.def_100 (and .s.5 .def_99)))
(let ((.def_101 (not .def_100)))
(let ((.def_741 (and .def_101 .def_116)))
(let ((.def_81 (and .s.1 .def_25)))
(let ((.def_82 (and .s.2 .def_81)))
(let ((.def_83 (and .s.3 .def_82)))
(let ((.def_84 (and .def_20 .def_83)))
(let ((.def_85 (and .s.5 .def_84)))
(let ((.def_86 (not .def_85)))
(let ((.def_742 (and .def_86 .def_741)))
(let ((.def_64 (and .s.1 .s.0)))
(let ((.def_65 (and .s.2 .def_64)))
(let ((.def_66 (and .s.3 .def_65)))
(let ((.def_67 (and .def_20 .def_66)))
(let ((.def_68 (and .s.5 .def_67)))
(let ((.def_69 (not .def_68)))
(let ((.def_743 (and .def_69 .def_742)))
(let ((.def_14 (not .s.2)))
(let ((.def_27 (and .def_14 .def_26)))
(let ((.def_17 (not .s.3)))
(let ((.def_28 (and .def_17 .def_27)))
(let ((.def_29 (and .s.4 .def_28)))
(let ((.def_30 (and .s.5 .def_29)))
(let ((.def_31 (not .def_30)))
(let ((.def_744 (and .def_31 .def_743)))
.def_744)))))))))))))))))))))))))))))))))))))))))
(check-sat)
